NAME: tsp30_24
COMMENT: 30-tsp problem (Padberg/Rinaldi)
TYPE: TSP
DIMENSION: 30
EDGE_WEIGHT_TYPE : EUC_2D
NODE_COORD_SECTION
1 20 33
2 24 2
3 30 23
4 25 25
5 6 34
6 21 5
7 3 31
8 31 25
9 39 3
10 15 15
11 33 6
12 33 15
13 23 13
14 35 20
15 28 33
16 20 10
17 7 34
18 7 34
19 24 25
20 9 6
21 14 5
22 1 38
23 38 7
24 21 21
25 12 14
26 40 4
27 20 7
28 35 36
29 33 37
30 18 0
